************************************************************************
file with basedata            : mm13_.bas
initial value random generator: 959955689
************************************************************************
projects                      :  1
jobs (incl. supersource/sink ):  12
horizon                       :  71
RESOURCES
  - renewable                 :  2   R
  - nonrenewable              :  2   N
  - doubly constrained        :  0   D
************************************************************************
PROJECT INFORMATION:
pronr.  #jobs rel.date duedate tardcost  MPM-Time
    1     10      0       13        6       13
************************************************************************
PRECEDENCE RELATIONS:
jobnr.    #modes  #successors   successors
   1        1          3           2   3   4
   2        3          1           5
   3        3          1           7
   4        3          3           6   9  10
   5        3          3           7   8   9
   6        3          2           7   8
   7        3          1          11
   8        3          1          11
   9        3          1          12
  10        3          1          12
  11        3          1          12
  12        1          0        
************************************************************************
REQUESTS/DURATIONS:
jobnr. mode duration  R 1  R 2  N 1  N 2
------------------------------------------------------------------------
  1      1     0       0    0    0    0
  2      1     1       4    0    7    9
         2     4       0    7    5    9
         3    10       0    7    1    8
  3      1     2       0    9    9    5
         2     4       0    7    4    4
         3     4      10    0    7    4
  4      1     1       5    0    1    9
         2     5       2    0    1    8
         3     7       0    7    1    6
  5      1     2       3    0    8    5
         2     3       2    0    1    2
         3     3       0    3    4    4
  6      1     4       0    8    4    6
         2     4       1    0    3    6
         3     8       1    0    2    6
  7      1     1       9    0    9    9
         2     3       8    0    8    4
         3     3       9    0    5    1
  8      1     4       0   10    9    9
         2     4       2    0    9    9
         3    10       0   10    7    7
  9      1     3      10    0    3    8
         2     4       0    4    2    5
         3     7       0    4    1    3
 10      1     4       0   10    9    7
         2     7       0    9    8    7
         3    10       3    0    8    6
 11      1     4       5    0    2    8
         2     7       5    0    2    6
         3     9       4    0    2    5
 12      1     0       0    0    0    0
************************************************************************
RESOURCEAVAILABILITIES:
  R 1  R 2  N 1  N 2
   16   12   38   53
************************************************************************
MAXIMAL LAGS:
from  to  type  delay
    1   12   ES      0
    1    2   ES      0
    2   12   ES      0
    1    3   ES      0
    3   12   ES      0
    1    4   ES      0
    4   12   ES      0
    1    5   ES      0
    5   12   ES      0
    1    6   ES      0
    6   12   ES      0
    1    7   ES      0
    7   12   ES      0
    1    8   ES      0
    8   12   ES      0
    1    9   ES      0
    9   12   ES      0
    1   10   ES      0
   10   12   ES      0
    1   11   ES      0
   11   12   ES      0
    1   12   ES      0
    2    5   SS     11
    2    5   SE      8
    2    5   ES    -12
    2    5   EE    -10
    3    7   SS     11
    3    7   SE      4
    3    7   ES     -6
    3    7   EE      0
    4    6   SS      1
    4    6   SE      2
    4    6   ES     -2
    4    6   EE     -7
    4    9   SS     -1
    4    9   SE     -3
    4    9   ES     11
    4    9   EE     -2
    4   10   SS     12
    4   10   SE      6
    4   10   ES      7
    4   10   EE    -10
    5    7   SS    -11
    5    7   SE     -8
    5    7   ES     -7
    5    7   EE     12
    5    8   SS      7
    5    8   SE    -11
    5    8   ES      9
    5    8   EE    -10
    5    9   SS     -4
    5    9   SE      2
    5    9   ES      9
    5    9   EE      1
    6    7   SS      3
    6    7   SE      7
    6    7   ES      2
    6    7   EE      1
    6    8   SS     -4
    6    8   SE     -6
    6    8   ES     12
    6    8   EE      4
    7   11   SS     -9
    7   11   SE     -1
    7   11   ES      1
    7   11   EE     -9
    8   11   SS     -3
    8   11   SE      9
    8   11   ES      9
    8   11   EE      6
************************************************************************
